
Gurobi 9.0.1 (linux64) logging started Thu Apr 30 07:22:44 2020

Gurobi Optimizer version 9.0.1 build v9.0.1rc0 (linux64)
Optimize a model with 3852 rows, 3890 columns and 44560 nonzeros
Model fingerprint: 0x9435d5b6
Variable types: 0 continuous, 3890 integer (3872 binary)
Coefficient statistics:
  Matrix range     [1e+00, 9e+00]
  Objective range  [7e+00, 1e+02]
  Bounds range     [1e+00, 1e+00]
  RHS range        [1e+00, 1e+00]

User MIP start produced solution with objective 872 (0.02s)
Loaded user MIP start with objective 872

Presolve removed 1673 rows and 1199 columns
Presolve time: 0.28s
Presolved: 2179 rows, 2691 columns, 33048 nonzeros
Variable types: 0 continuous, 2691 integer (2691 binary)

Root relaxation: objective 5.250754e+02, 1094 iterations, 0.11 seconds

    Nodes    |    Current Node    |     Objective Bounds      |     Work
 Expl Unexpl |  Obj  Depth IntInf | Incumbent    BestBd   Gap | It/Node Time

     0     0  525.07537    0  340  872.00000  525.07537  39.8%     -    0s
     0     0  544.28655    0  383  872.00000  544.28655  37.6%     -    1s
     0     0  548.37291    0  371  872.00000  548.37291  37.1%     -    1s
     0     0  548.39983    0  364  872.00000  548.39983  37.1%     -    1s
     0     0  548.68811    0  367  872.00000  548.68811  37.1%     -    1s
     0     0  554.27290    0  402  872.00000  554.27290  36.4%     -    1s
     0     0  560.47813    0  408  872.00000  560.47813  35.7%     -    2s
     0     0  561.59968    0  409  872.00000  561.59968  35.6%     -    2s
     0     0  561.72062    0  412  872.00000  561.72062  35.6%     -    2s
     0     0  561.73060    0  413  872.00000  561.73060  35.6%     -    2s
     0     0  568.72426    0  432  872.00000  568.72426  34.8%     -    2s
     0     0  570.58226    0  429  872.00000  570.58226  34.6%     -    2s
     0     0  570.60387    0  429  872.00000  570.60387  34.6%     -    3s
     0     0  570.60471    0  433  872.00000  570.60471  34.6%     -    3s
     0     0  574.77567    0  444  872.00000  574.77567  34.1%     -    3s
     0     0  574.88062    0  437  872.00000  574.88062  34.1%     -    3s
     0     0  574.94032    0  439  872.00000  574.94032  34.1%     -    3s
     0     0  574.94143    0  432  872.00000  574.94143  34.1%     -    3s
     0     0  579.10731    0  435  872.00000  579.10731  33.6%     -    3s
     0     0  579.68448    0  438  872.00000  579.68448  33.5%     -    3s
     0     0  579.68685    0  440  872.00000  579.68685  33.5%     -    3s
     0     0  581.48601    0  448  872.00000  581.48601  33.3%     -    3s
     0     0  581.53805    0  449  872.00000  581.53805  33.3%     -    4s
     0     0  581.55191    0  446  872.00000  581.55191  33.3%     -    4s
     0     0  586.69968    0  436  872.00000  586.69968  32.7%     -    4s
     0     0  586.96252    0  437  872.00000  586.96252  32.7%     -    4s
     0     0  588.53279    0  441  872.00000  588.53279  32.5%     -    4s
     0     0  588.75850    0  442  872.00000  588.75850  32.5%     -    4s
     0     0  588.78555    0  438  872.00000  588.78555  32.5%     -    4s
     0     0  590.36670    0  441  872.00000  590.36670  32.3%     -    4s
     0     0  590.58584    0  437  872.00000  590.58584  32.3%     -    4s
     0     0  590.58584    0  438  872.00000  590.58584  32.3%     -    4s
     0     0  592.60984    0  422  872.00000  592.60984  32.0%     -    4s
     0     0  592.62553    0  418  872.00000  592.62553  32.0%     -    5s
     0     0  593.26054    0  436  872.00000  593.26054  32.0%     -    5s
     0     0  593.68750    0  436  872.00000  593.68750  31.9%     -    5s
     0     0  593.70612    0  436  872.00000  593.70612  31.9%     -    5s
     0     0  594.93744    0  432  872.00000  594.93744  31.8%     -    5s
     0     0  595.26216    0  429  872.00000  595.26216  31.7%     -    5s
     0     0  595.26444    0  427  872.00000  595.26444  31.7%     -    5s
     0     0  596.72307    0  426  872.00000  596.72307  31.6%     -    5s
     0     0  596.79932    0  433  872.00000  596.79932  31.6%     -    5s
     0     0  596.79947    0  440  872.00000  596.79947  31.6%     -    5s
     0     0  597.99906    0  450  872.00000  597.99906  31.4%     -    5s
     0     0  598.10036    0  439  872.00000  598.10036  31.4%     -    5s
     0     0  598.38060    0  447  872.00000  598.38060  31.4%     -    6s
     0     0  598.38581    0  454  872.00000  598.38581  31.4%     -    6s
     0     0  598.45792    0  451  872.00000  598.45792  31.4%     -    6s
     0     0  598.45792    0  439  872.00000  598.45792  31.4%     -    6s
     0     0  598.59794    0  330  872.00000  598.59794  31.4%     -    7s
     0     0  598.59794    0  423  872.00000  598.59794  31.4%     -    7s
     0     0  598.59794    0  431  872.00000  598.59794  31.4%     -    7s
     0     0  598.59794    0  447  872.00000  598.59794  31.4%     -    7s
     0     0  598.59794    0  446  872.00000  598.59794  31.4%     -    7s
     0     0  598.59794    0  448  872.00000  598.59794  31.4%     -    7s
     0     0  599.20854    0  436  872.00000  599.20854  31.3%     -    7s
     0     0  599.40324    0  440  872.00000  599.40324  31.3%     -    8s
     0     0  599.45944    0  440  872.00000  599.45944  31.3%     -    8s
     0     0  599.46255    0  439  872.00000  599.46255  31.3%     -    8s
     0     0  602.24699    0  456  872.00000  602.24699  30.9%     -    8s
     0     0  602.80700    0  448  872.00000  602.80700  30.9%     -    8s
     0     0  602.93588    0  462  872.00000  602.93588  30.9%     -    8s
     0     0  602.95938    0  465  872.00000  602.95938  30.9%     -    8s
     0     0  603.97602    0  462  872.00000  603.97602  30.7%     -    9s
H    0     0                     850.0000000  603.97602  28.9%     -    9s
     0     0  604.42440    0  461  850.00000  604.42440  28.9%     -    9s
     0     0  604.54186    0  470  850.00000  604.54186  28.9%     -    9s
     0     0  604.57147    0  471  850.00000  604.57147  28.9%     -    9s
     0     0  604.58708    0  478  850.00000  604.58708  28.9%     -    9s
     0     0  604.58708    0  481  850.00000  604.58708  28.9%     -    9s
     0     0  604.58708    0  465  850.00000  604.58708  28.9%     -   10s
     0     2  604.79372    0  463  850.00000  604.79372  28.8%     -   10s
H   27    27                     849.0000000  614.16393  27.7%   319   12s
H   88    88                     785.0000000  616.57629  21.5%   191   13s
H  135   105                     764.0000000  625.51947  18.1%   171   15s
H  193   122                     732.0000000  625.63879  14.5%   191   17s
   329   185  729.03121   24  257  732.00000  627.83462  14.2%   168   20s
   511   265  690.12986   13  439  732.00000  632.12529  13.6%   165   26s
   534   280  712.55843   22  472  732.00000  632.12529  13.6%   158   30s
   558   296  691.85418   15  456  732.00000  632.12529  13.6%   151   35s
   565   303  633.60303   16  368  732.00000  632.12529  13.6%   165   40s
   621   340  690.50320   44  349  732.00000  632.12529  13.6%   173   45s
   764   371  713.49939   31  279  732.00000  633.29864  13.5%   163   50s
   945   388  701.57877   21  281  732.00000  637.49267  12.9%   156   55s
  1220   367  653.88045   33  394  732.00000  645.20724  11.9%   141   60s
  1429   382     cutoff   34       732.00000  652.85068  10.8%   140   65s
  1646   437     cutoff   29       732.00000  657.21470  10.2%   136   70s
  1866   513  727.75000   37  236  732.00000  659.59353  9.89%   135   75s
  2131   580  712.40062   27  274  732.00000  662.31907  9.52%   130   80s
  2367   652  673.38771   37  349  732.00000  664.98261  9.16%   129   85s
  2673   699  702.22737   25  340  732.00000  668.15776  8.72%   125   90s
  2912   758  673.83567   27  389  732.00000  669.05739  8.60%   125   95s
  3058   796  704.97312   27  262  732.00000  670.15694  8.45%   126  100s
  3285   840     cutoff   23       732.00000  671.60193  8.25%   127  105s
  3570   879  721.85964   29  365  732.00000  674.26759  7.89%   125  110s
  3857   915     cutoff   39       732.00000  676.40357  7.60%   124  115s
  4116   931  730.00219   24  304  732.00000  678.46186  7.31%   124  120s
  4385   948 infeasible   33       732.00000  680.00031  7.10%   124  125s
  4589   981  717.96536   32  350  732.00000  680.86998  6.98%   124  130s
  4884  1015  716.46074   25  252  732.00000  681.85571  6.85%   123  135s
  5122  1037  717.66337   34  234  732.00000  682.46995  6.77%   122  141s
  5309  1043  726.00000   32  132  732.00000  683.85603  6.58%   122  145s
  5528  1058  701.45655   42  318  732.00000  684.55602  6.48%   124  150s
  5820  1073  706.18606   40  319  732.00000  686.94082  6.16%   124  155s
  6102  1075  723.88623   31  344  732.00000  689.14235  5.85%   124  160s
  6355  1074     cutoff   27       732.00000  690.46333  5.67%   124  165s
  6528  1078     cutoff   41       732.00000  691.22248  5.57%   125  170s
  6784  1062  727.56468   40  340  732.00000  693.88932  5.21%   124  175s
  7065  1027  701.27785   28  298  732.00000  695.99206  4.92%   124  180s
  7248  1014     cutoff   29       732.00000  696.91618  4.79%   124  185s
  7593  1006  728.18582   28  245  732.00000  699.46765  4.44%   123  190s
  7918   946     cutoff   31       732.00000  702.15510  4.08%   123  195s
  8240   885  721.37998   37  343  732.00000  704.24028  3.79%   122  200s
  8541   827     cutoff   42       732.00000  705.77673  3.58%   122  205s
  8723   780  727.09091   36  233  732.00000  707.32218  3.37%   122  210s
  8979   695  717.70606   46  345  732.00000  709.62194  3.06%   121  215s
  9314   565     cutoff   50       732.00000  712.61754  2.65%   121  220s
  9736   340  730.02746   31  354  732.00000  717.80344  1.94%   119  225s

Cutting planes:
  Gomory: 2
  MIR: 38
  StrongCG: 3
  Flow cover: 15
  GUB cover: 1
  Inf proof: 42
  Zero half: 66
  RLT: 5

Explored 10137 nodes (1189339 simplex iterations) in 228.01 seconds
Thread count was 1 (of 40 available processors)

Solution count 6: 732 764 785 ... 872

Optimal solution found (tolerance 1.00e-04)
Best objective 7.320000000000e+02, best bound 7.320000000000e+02, gap 0.0000%

User-callback calls 49055, time in user-callback 0.08 sec
